p tw 57 6841 2 
1 3 
1 4 
1 5 
1 6 
1 7 
1 8 
1 9 
1 10 
1 11 
1 12 
1 13 
1 14 
1 15 
1 16 
1 17 
1 20 
1 28 
1 33 
1 41 
1 45 
1 54 
1 56 
1 57 
2 3 
2 4 
2 5 
2 6 
2 7 
2 8 
2 9 
2 10 
2 15 
2 18 
2 19 
2 20 
2 21 
2 22 
2 23 
2 24 
2 27 
2 33 
2 38 
2 42 
2 49 
2 50 
2 51 
3 4 
3 5 
3 6 
3 7 
3 8 
3 9 
3 11 
3 16 
3 18 
3 22 
3 25 
3 26 
3 27 
3 28 
3 29 
3 30 
3 35 
3 38 
3 43 
3 46 
3 54 
3 55 
4 5 
4 6 
4 7 
4 8 
4 9 
4 10 
4 12 
4 19 
4 25 
4 26 
4 31 
4 32 
4 33 
4 34 
4 35 
4 36 
4 37 
4 38 
4 39 
4 40 
4 41 
5 6 
5 7 
5 8 
5 9 
5 12 
5 13 
5 18 
5 21 
5 28 
5 31 
5 34 
5 37 
5 42 
5 43 
5 44 
5 45 
5 46 
5 49 
5 52 
5 53 
6 7 
6 8 
6 9 
6 14 
6 17 
6 20 
6 23 
6 27 
6 29 
6 32 
6 34 
6 37 
6 39 
6 43 
6 46 
6 47 
6 48 
6 50 
6 56 
7 8 
7 9 
7 13 
7 15 
7 23 
7 24 
7 25 
7 26 
7 36 
7 41 
7 44 
7 47 
7 48 
7 50 
7 52 
7 53 
7 54 
7 55 
8 9 
8 11 
8 16 
8 21 
8 22 
8 30 
8 31 
8 36 
8 39 
8 40 
8 42 
8 47 
8 48 
8 51 
8 53 
8 56 
8 57 
9 14 
9 17 
9 19 
9 24 
9 29 
9 30 
9 32 
9 35 
9 40 
9 44 
9 45 
9 49 
9 51 
9 52 
9 55 
9 57 
10 11 
10 12 
10 13 
10 14 
10 15 
10 16 
10 17 
10 18 
10 19 
10 20 
10 21 
10 22 
10 23 
10 24 
10 25 
10 31 
10 32 
10 33 
10 34 
10 35 
10 36 
11 12 
11 13 
11 14 
11 15 
11 16 
11 17 
11 18 
11 22 
11 25 
11 26 
11 27 
11 28 
11 29 
11 30 
11 31 
11 39 
11 47 
11 51 
11 53 
11 57 
12 13 
12 14 
12 15 
12 16 
12 17 
12 19 
12 21 
12 26 
12 28 
12 34 
12 37 
12 38 
12 39 
12 40 
12 41 
12 46 
12 49 
12 52 
12 53 
13 14 
13 15 
13 16 
13 17 
13 18 
13 24 
13 25 
13 31 
13 37 
13 41 
13 42 
13 43 
13 44 
13 45 
13 48 
13 50 
13 53 
13 55 
14 15 
14 16 
14 17 
14 20 
14 24 
14 27 
14 29 
14 32 
14 35 
14 37 
14 40 
14 44 
14 46 
14 47 
14 48 
14 49 
14 57 
15 16 
15 17 
15 23 
15 26 
15 27 
15 33 
15 36 
15 38 
15 42 
15 44 
15 47 
15 49 
15 50 
15 51 
15 52 
15 54 
16 17 
16 21 
16 22 
16 30 
16 35 
16 36 
16 38 
16 40 
16 42 
16 43 
16 46 
16 48 
16 54 
16 55 
16 56 
17 19 
17 23 
17 29 
17 30 
17 32 
17 34 
17 39 
17 43 
17 45 
17 50 
17 51 
17 52 
17 55 
17 56 
18 19 
18 20 
18 21 
18 22 
18 23 
18 24 
18 25 
18 26 
18 27 
18 28 
18 29 
18 30 
18 31 
18 37 
18 42 
18 43 
18 44 
18 45 
19 20 
19 21 
19 22 
19 23 
19 24 
19 26 
19 30 
19 32 
19 37 
19 38 
19 39 
19 40 
19 41 
19 45 
19 51 
19 52 
19 55 
20 21 
20 22 
20 23 
20 24 
20 27 
20 28 
20 32 
20 33 
20 37 
20 41 
20 45 
20 46 
20 47 
20 48 
20 54 
20 56 
20 57 
21 22 
21 23 
21 24 
21 28 
21 30 
21 34 
21 36 
21 40 
21 42 
21 46 
21 48 
21 49 
21 52 
21 53 
21 56 
22 23 
22 24 
22 31 
22 35 
22 38 
22 39 
22 43 
22 46 
22 47 
22 51 
22 53 
22 54 
22 55 
22 57 
23 24 
23 26 
23 29 
23 34 
23 36 
23 39 
23 43 
23 44 
23 47 
23 50 
23 52 
23 54 
23 56 
24 25 
24 29 
24 35 
24 40 
24 41 
24 44 
24 48 
24 49 
24 50 
24 53 
24 55 
24 57 
25 26 
25 27 
25 28 
25 29 
25 30 
25 31 
25 32 
25 33 
25 34 
25 35 
25 36 
25 41 
25 48 
25 50 
25 53 
25 55 
26 27 
26 28 
26 29 
26 30 
26 36 
26 37 
26 38 
26 39 
26 40 
26 41 
26 44 
26 47 
26 52 
26 54 
27 28 
27 29 
27 30 
27 32 
27 33 
27 37 
27 38 
27 42 
27 46 
27 47 
27 48 
27 49 
27 50 
27 51 
28 29 
28 30 
28 33 
28 34 
28 41 
28 45 
28 46 
28 49 
28 52 
28 53 
28 54 
28 56 
28 57 
29 30 
29 34 
29 35 
29 39 
29 40 
29 43 
29 44 
29 49 
29 50 
29 56 
29 57 
30 32 
30 36 
30 40 
30 42 
30 45 
30 48 
30 51 
30 52 
30 55 
30 56 
31 32 
31 33 
31 34 
31 35 
31 36 
31 37 
31 39 
31 42 
31 43 
31 44 
31 45 
31 47 
31 51 
31 53 
31 57 
32 33 
32 34 
32 35 
32 36 
32 37 
32 45 
32 46 
32 47 
32 48 
32 51 
32 52 
32 55 
33 34 
33 35 
33 36 
33 38 
33 41 
33 42 
33 45 
33 49 
33 50 
33 51 
33 54 
33 56 
33 57 
34 35 
34 36 
34 39 
34 43 
34 46 
34 49 
34 50 
34 52 
34 53 
34 56 
35 36 
35 38 
35 40 
35 43 
35 44 
35 46 
35 49 
35 54 
35 55 
35 57 
36 40 
36 42 
36 44 
36 47 
36 48 
36 52 
36 54 
36 56 
37 38 
37 39 
37 40 
37 41 
37 42 
37 43 
37 44 
37 45 
37 46 
37 47 
37 48 
38 39 
38 40 
38 41 
38 42 
38 43 
38 46 
38 49 
38 50 
38 51 
38 54 
38 55 
39 40 
39 41 
39 43 
39 47 
39 50 
39 51 
39 53 
39 56 
39 57 
40 41 
40 42 
40 44 
40 48 
40 49 
40 56 
40 57 
41 45 
41 48 
41 50 
41 53 
41 54 
41 55 
41 56 
41 57 
42 43 
42 44 
42 45 
42 48 
42 49 
42 50 
42 51 
42 56 
43 44 
43 45 
43 46 
43 50 
43 54 
43 55 
43 56 
44 45 
44 47 
44 49 
44 52 
44 54 
44 57 
45 51 
45 52 
45 54 
45 55 
45 56 
45 57 
46 47 
46 48 
46 49 
46 52 
46 53 
46 54 
46 55 
47 48 
47 51 
47 52 
47 53 
47 54 
47 57 
48 50 
48 53 
48 55 
48 56 
49 50 
49 51 
49 52 
49 53 
49 57 
50 51 
50 53 
50 55 
50 56 
51 52 
51 53 
51 55 
51 57 
52 53 
52 54 
52 55 
53 55 
53 57 
54 55 
54 56 
54 57 
56 57 
